&control
calculation     =  'scf'
restart_mode    =  'from_scratch'
prefix          =  'p'
tprnfor         =  .true.
pseudo_dir      =  './'
outdir          =  './scratch/'
verbosity       =  'high'
/
&system
ibrav           =   0
nat             =   4
ntyp            =   1
ecutwfc         =   140.0
occupations     =  'smearing'
degauss         =   0.001
nbnd = 30
/
&electrons
conv_thr        =   1.0d-9
diagonalization =  'david'
/
ATOMIC_SPECIES
 P  30.974   P.UPF

CELL_PARAMETERS {angstrom}
    3.3199000359           0.0000000000     0.0000000000    
    0.0000000000           4.3154001236     0.0000000000    
    0.0000000000           0.0000000000    22.1641741000    

ATOMIC_POSITIONS {angstrom}
P      1.659950018          1.803406119    4.101812840     
P      1.659950018          2.511994362    6.265986919     
P      0.000000000          3.961105824    6.265986919     
P      0.000000000          0.354294240    4.101812840     

K_POINTS crystal  
          36
    0.500000    0.000000    0.000000    1.0
    0.475000    0.000000    0.000000    1.0
    0.450000    0.000000    0.000000    1.0
    0.425000    0.000000    0.000000    1.0
    0.400000    0.000000    0.000000    1.0
    0.375000    0.000000    0.000000    1.0
    0.350000    0.000000    0.000000    1.0
    0.325000    0.000000    0.000000    1.0
    0.300000    0.000000    0.000000    1.0
    0.275000    0.000000    0.000000    1.0
    0.250000    0.000000    0.000000    1.0
    0.225000    0.000000    0.000000    1.0
    0.200000    0.000000    0.000000    1.0
    0.175000    0.000000    0.000000    1.0
    0.150000    0.000000    0.000000    1.0
    0.125000    0.000000    0.000000    1.0
    0.100000    0.000000    0.000000    1.0
    0.075000    0.000000    0.000000    1.0
    0.050000    0.000000    0.000000    1.0
    0.025000    0.000000    0.000000    1.0
    0.000000    0.000000    0.000000    1.0
    0.000000    0.033333    0.000000    1.0
    0.000000    0.066667    0.000000    1.0
    0.000000    0.100000    0.000000    1.0
    0.000000    0.133333    0.000000    1.0
    0.000000    0.166667    0.000000    1.0
    0.000000    0.200000    0.000000    1.0
    0.000000    0.233333    0.000000    1.0
    0.000000    0.266667    0.000000    1.0
    0.000000    0.300000    0.000000    1.0
    0.000000    0.333333    0.000000    1.0
    0.000000    0.366667    0.000000    1.0
    0.000000    0.400000    0.000000    1.0
    0.000000    0.433333    0.000000    1.0
    0.000000    0.466667    0.000000    1.0
    0.000000    0.500000    0.000000    1.0
