&control
calculation     =  'scf'
restart_mode    =  'from_scratch'
prefix          =  'p'
tprnfor         =  .true.
pseudo_dir      =  './'
outdir          =  './scratch/'
verbosity       =  'high'
/
&system
ibrav           =   0
nat             =   4
ntyp            =   1
ecutwfc         =   200.0
occupations     =  'smearing'
degauss         =   0.001
/
&electrons
conv_thr        =   1.0d-9
diagonalization =  'david'
/
ATOMIC_SPECIES
 P  30.974   P.UPF

CELL_PARAMETERS {angstrom}
    3.3199000359           0.0000000000     0.0000000000    
    0.0000000000           4.3154001236     0.0000000000    
    0.0000000000           0.0000000000    22.1641741000    

ATOMIC_POSITIONS {angstrom}
P      1.659950018          1.803406119    4.101812840     
P      1.659950018          2.511994362    6.265986919     
P      0.000000000          3.961105824    6.265986919     
P      0.000000000          0.354294240    4.101812840     

K_POINTS {automatic}
12 9 1 0 0 0

