&control
calculation     =  'bands'
restart_mode    =  'from_scratch'
prefix          =  'mose2'
tprnfor         =  .true.
pseudo_dir      =  './'
outdir          =  './scratch/'
verbosity       =  'high'
/
&system
ibrav           =   4
celldm(1)       =   6.2171989498
celldm(3)       =   8.0
nat             =   3
ntyp            =   2
ecutwfc         =   120.0
occupations     =  'smearing'
degauss         =   0.001
nbnd     =  40
/
&electrons
conv_thr        =   1.0d-10
diagonalization =  'cg'
/
ATOMIC_SPECIES
Mo  95.95   Mo.UPF
Se  78.971  Se.UPF

ATOMIC_POSITIONS {alat}
Mo  1/2    1/2*3^(-1/2)   0
Se  1          0         3.29/3.30*0.5
Se  1          0        -3.29/3.30*0.5

K_POINTS crystal  
          66
    0.500000    0.000000    0.000000    1.0
    0.483333    0.000000    0.000000    1.0
    0.466667    0.000000    0.000000    1.0
    0.450000    0.000000    0.000000    1.0
    0.433333    0.000000    0.000000    1.0
    0.416667    0.000000    0.000000    1.0
    0.400000    0.000000    0.000000    1.0
    0.383333    0.000000    0.000000    1.0
    0.366667    0.000000    0.000000    1.0
    0.350000    0.000000    0.000000    1.0
    0.333333    0.000000    0.000000    1.0
    0.316667    0.000000    0.000000    1.0
    0.300000    0.000000    0.000000    1.0
    0.283333    0.000000    0.000000    1.0
    0.266667    0.000000    0.000000    1.0
    0.250000    0.000000    0.000000    1.0
    0.233333    0.000000    0.000000    1.0
    0.216667    0.000000    0.000000    1.0
    0.200000    0.000000    0.000000    1.0
    0.183333    0.000000    0.000000    1.0
    0.166667    0.000000    0.000000    1.0
    0.150000    0.000000    0.000000    1.0
    0.133333    0.000000    0.000000    1.0
    0.116667    0.000000    0.000000    1.0
    0.100000    0.000000    0.000000    1.0
    0.083333    0.000000    0.000000    1.0
    0.066667    0.000000    0.000000    1.0
    0.050000    0.000000    0.000000    1.0
    0.033333    0.000000    0.000000    1.0
    0.016667    0.000000    0.000000    1.0
    0.000000    0.000000    0.000000    1.0
    0.009524    0.009524    0.000000    1.0
    0.019048    0.019048    0.000000    1.0
    0.028571    0.028571    0.000000    1.0
    0.038095    0.038095    0.000000    1.0
    0.047619    0.047619    0.000000    1.0
    0.057143    0.057143    0.000000    1.0
    0.066667    0.066667    0.000000    1.0
    0.076190    0.076190    0.000000    1.0
    0.085714    0.085714    0.000000    1.0
    0.095238    0.095238    0.000000    1.0
    0.104762    0.104762    0.000000    1.0
    0.114286    0.114286    0.000000    1.0
    0.123810    0.123810    0.000000    1.0
    0.133333    0.133333    0.000000    1.0
    0.142857    0.142857    0.000000    1.0
    0.152381    0.152381    0.000000    1.0
    0.161905    0.161905    0.000000    1.0
    0.171429    0.171429    0.000000    1.0
    0.180952    0.180952    0.000000    1.0
    0.190476    0.190476    0.000000    1.0
    0.200000    0.200000    0.000000    1.0
    0.209524    0.209524    0.000000    1.0
    0.219048    0.219048    0.000000    1.0
    0.228571    0.228571    0.000000    1.0
    0.238095    0.238095    0.000000    1.0
    0.247619    0.247619    0.000000    1.0
    0.257143    0.257143    0.000000    1.0
    0.266667    0.266667    0.000000    1.0
    0.276190    0.276190    0.000000    1.0
    0.285714    0.285714    0.000000    1.0
    0.295238    0.295238    0.000000    1.0
    0.304762    0.304762    0.000000    1.0
    0.314286    0.314286    0.000000    1.0
    0.323810    0.323810    0.000000    1.0
    0.333333    0.333333    0.000000    1.0
